/*********************************************
 * OPL 22.1.1.0 Data
 * Author: ibmakhlouf
 * Creation Date: 4 mars 2025 at 16:28:36
 *********************************************/
a = [6, 4, 2]; 
b = [1, 6, 3, 2]; 
 